775 63
99 512
13 84
52 841
47 5
12 11
2 1
1 4
1 2
1 5
2 5
2 1
12 5
1 5
1 1
1 1
2 2
79 3
8 3
22 2
1 6
1 4
1 6
3 4
1 2
1 1
1 1
1 1
2 1
1 1
1 1
7 2
13 3
5 5
1 2
1 2
3 2
12 5
4 2
2 2
2 2
4 4
10 5
2 3
1 2
1 2
4 1
7 1
1 1
9 4
7 1
1 4
3 1
1 2
1 1
1 2
1 1
14 4
5 2
3 2
1 1
1 1
2 1
23 8
3 1
26 1
22 7
11 9
8 2
112 177
8 173
5 312
1 212
1 61
2 334
3 278
1 89
1 17
1 51
4 116
1 53
1 97
1 241
1 7
1 22
1 15
1 6
1 7
1 8
1 10
1 5
2 4
1 63
1 114
1 10
1 48
1 41
1 103
1 6
12 368
2 299
2 348
1 56
1 251
1 88
1 66
2 40
2 109
107 282
9 40
5 76
5 18
1 1
2 5
2 6
1 2
1 3
1 1
3 4
2 4
4 4
5 15
1 7
1 6
2 3
1 2
1 1
1 6
1 1
1 9
1 4
2 5
2 1
4 2
3 1
1 1
1 1
4 2
5 3
4 6
1 2
1 1
5 2
1 1
6 1
4 7
3 8
1 2
12 7
6 79
1 6
1 6
1 9
3 15
2 8
2 9
2 1
6 9
5 45
2 42
2 38
1 9
3 4
1 2
1 5
1 2
1 6
1 2
3 2
1 2
1 2
1 2
5 7
1 4
1 2
1 1
1 1
1 1
3 1
3 1
1 1
1 1
1 2
1 1
2 4
1 1
2 1
1 1
1 2
2 2
1 1
1 2
1 1
5 46
55 87
14 5
33 5
14 2
4 1
1 3
1 1
1 4
4 1
1 2
4 1
1 2
1 1
25 3
41 2
37 1
13 1
4 1
12 1
27 1
3 1
14 1
11 1
17 1
102 5
2 2
2 3
76 4
20 2
4 3
1 1
2 4
1 1
1 1
3 2
2 2
1 2
2 2
3 3
10 1
4 1
5 1
49 3
28 1
13 3
3 4
10 6
1 3
8 1
1 2
2 1
2 1
4 2
7 1
2 1
1 1
1 1
4 1
6 1
3 1
6 1
8 2
11 1
2 3
3 1
2 1
1 1
1 1
4 2
3 1
3 2
1 1
2 3
9 2
7 2
4 1
3 1
2 1
9 1
5 1
13 1
3 1
51 2
31 4
8 4
29 3
2 1
32 1
33 1
78 1
80 69
7 90
25 7
13 6
1 1
4 1
11 5
1 7
35 1
38 4
6 26
2 12
1 15
1 1
2 1
2 1
7 20
1 19
1 1
170 153
268 715
131 21
119 53
80 57
105 1
108 6
17 2
1 1
1 1
1 4
1 4
68 6
30 3
4 1
12 3
13 1
11 2
1 2
11 2
32 3
53 9
47 1
9 1
8 1
3 1
31 1
9 1
64 2
244 1
46 7
9 3
13 1
3 1
2 1
46 3
3 3
18 1
1 1
15 1
4 1
1 1
6 1
10 1
2 1
151 7
115 11
42 6
1 3
2 3
1 2
1 9
1 7
1 1
3 2
3 6
2 2
1 1
1 1
1 4
1 3
1 3
72 2
4 2
99 2
20 1
42 1
52 1
2 1
133 8
128 3
12 7
21 7
15 13
3 10
1 2
1 1
1 2
1 1
1 2
2 1
2 1
8 1
8 1
7 2
1 2
3 1
5 2
1 1
8 4
12 3
5 2
6 1
9 1
2 1
1 1
6 1
39 1
23 3
15 2
11 2
105 8
28 2
29 1
9 2
5 2
2 1
1 1
3 1
35 2
10 1
1 1
11 1
1 3
24 2
104 3
35 1
12 2
2 3
4 1
7 1
9 1
2 1
6 1
73 3
9 3
145 2
11 5
1 1
3 1
5 6
72 3
91 2
35 2
55 1
34 2
29 1
1 1
12 1
66 1
82 17
8 21
59 2
217 30
34 35
16 14
1 41
9 5
1 3
13 4
1 1
1 1
2 2
8 2
15 25
19 10
3 3
1 6
3 1
4 2
1 1
1 1
5 1
4 1
3 1
2 1
1 1
1 1
3 1
2 1
3 1
9 8
3 8
10 1
40 16
16 2
3 7
5 8
1 7
1 3
1 1
6 3
5 1
1 3
4 3
22 12
1 13
1 14
1 6
2 1
2 2
201 28
136 18
16 9
270 9
32 8
21 4
1 5
8 4
3 5
8 1
2 1
3 1
10 1
7 1
270 3
41 2
6 4
4 4
2 6
1 4
1 5
1 1
2 2
1 1
1 1
2 1
1 2
2 1
3 2
5 1
7 1
1 1
4 3
1 1
1 1
5 1
3 3
1 3
6 3
1 3
69 6
224 3
53 5
10 1
98 1
136 4
143 4
17 4
10 1
16 1
3 1
18 1
11 1
3 1
14 2
40 1
2 1
9 1
160 1
17 1
134 1
40 13
210 2
25 10
26 14
33 14
6 18
1 13
1 8
1 1
1 2
2 9
3 5
1 2
1 3
3 2
5 1
1 3
1 7
1 3
1 5
1 2
1 3
1 1
3 7
3 9
1 1
4 1
3 1
1 2
4 1
3 1
31 11
1 9
6 1
1 4
1 3
1 2
6 1
2 2
2 1
7 3
1 3
8 1
1 2
64 6
1 1
1 17
1 4
1 11
1 1
1 2
1 6
2 2
1 6
1 1
2 1
40 11
6 7
27 5
17 17
1 7
1 1
1 12
1 3
25 20
4 1
3 16
11 1
2 11
1 19
4 2
9 2
1 1
8 2
1 1
7 7
8 9
1 1
1 1
5 9
5 2
2 2
2 6
1 2
1 1
1 1
4 2
1 2
3 7
1 6
1 2
1 1
1 2
1 1
2 1
3 2
1 4
5 3
7 3
2 7
2 3
2 3
1 1
1 1
2 2
4 5
2 2
10 1
1 2
6 2
6 18
38 7
2 12
1 1
1 1
6 1
2 1
2 1
11 1
2 2
1 1
7 4
6 2
6 1
7 1
3 2
10 1
1 2
3 1
58 1
107 9
101 2
6 2
100 1
13 1
36 1
66 1
32 1
2 1
204 2
6 1
24 1
6 3
3 1
4 1
1 1
1 1
1 1
1 1
2 1
5 1
1 1
3 2
18 2
6 1
7 1
19 1
38 1
1 2
1 1
289 3
3 13
11 9
1 1
2 1
2 1
141 20
102 8
42 19
46 15
11 12
7 10
8 7
10 8
3 1
5 1
1 1
3 1
2 1
2 1
8 2
2 2
9 4
1 1
1 1
10 3
6 5
1 1
1 4
1 7
2 1
1 1
1 1
1 1
3 4
2 1
4 1
26 1
27 4
8 4
32 1
5 3
1 2
1 1
1 1
5 1
6 1
99 11
33 6
11 7
30 2
2 2
4 1
21 1
1 1
18 1
2 1
46 2
13 1
14 1
20 1
38 3
4 2
4 2
38 2
7 2
6 2
5 1
4 1
1 1
42 2
2 3
1 4
6 1
5 1
1 2
8 1
2 1
1 1
6 1
26 6
12 2
1 6
35 3
1 1
34 1
4 1
58 5
134 1
3 3
5 3
2 1
6 3
1 1
2 1
1 1
2 1
1 1
1 1
6 2
9 3
3 1
1 1
3 1
3 3
8 1
9 1
1 1
16 2
53 3
2 4
28 1
119 1
3 5
2 4
1 4
1 2
1 1
1 1
2 1
1 1
2 2
1 2
1 3
3 1
2 2
3 1
3 1
3 1
42 1
31 5
5 5
2 1
22 1
38 1
60 1
9 1
2 1
2 1
74 4
29 5
18 1
140 3
10 3
38 4
151 11
96 54
174 6
332 7
215 5
2 5
2 6
8 1
1 2
5 2
4 1
4 1
6 1
3 2
1 1
1 1
2 1
3 1
1 1
3 1
4 4
6 3
1 4
1 1
3 2
10 1
8 2
1 3
1 1
1 2
2 1
7 1
1 2
2 2
3 1
34 1
133 2
33 2
52 1
395 7
303 2
15 2
9 6
2 6
9 1
3 1
5 1
7 1
32 4
3 5
1 1
2 1
2 1
1 1
1 1
1 1
1 2
1 1
3 1
20 4
4 2
4 5
2 7
7 1
1 2
1 1
10 1
1 1
1 1
1 1
1 4
1 4
2 2
9 2
6 1
1 1
4 1
8 1
267 2
200 4
194 4
274 13
59 5
14 5
25 1
43 7
6 3
36 1
20 2
5 2
2 1
7 1
1 1
4 1
12 1
7 1
1 1
7 1
17 1
54 3
6 1
4 1
4 3
4 3
2 1
3 1
1 1
1 1
1 1
2 1
1 1
9 2
55 3
8 3
1 3
1 1
1 1
1 3
4 1
2 1
2 2
1 1
4 1
2 2
2 1
4 1
87 5
2 1
2 3
1 1
1 1
71 4
47 1
7 4
35 3
1 1
1 1
1 1
1 1
5 1
19 1
5 1
24 1
2 1
23 1
37 1
12 4
35 5
75 1
35 3
93 2
13 1
1 1
10 1
87 1
4 1
49 2
33 2
26 1
22 1
18 3
27 1
1 1
2 1
1 1
1 1
17 1
6 1
36 2
1 1
12 1
4 1
14 1
14 1
27 1
11 1
143 1
8 1
73 1
282 7
111 10
22 1
85 1
28 2
30 2
85 3
5 1
4 3
2 2
6 1
3 1
2 2
2 1
8 2
11 1
90 2
1 2
2 1
1 1
3 1
70 1
47 1
3 1
35 1
44 1
237 1
209 6
16 1
92 8
72 9
4 6
53 1
77 8
75 1
8 1
96 1
175 3
9 1
170 1
81 7
215 2
16 1
524 1
222 3
92 1
203 1
28 2
2 3
12 1
18 2
112 2
120 1
22 1
170 1
137 697
399 69
87 41
115 28
112 16
99 29
35 1
12 37
3 37
1 3
1 1
4 4
3 2
1 1
1 1
1 6
1 1
1 2
1 4
1 3
1 1
1 2
1 1
1 1
1 4
1 4
1 2
16 39
6 2
5 1
3 1
7 1
4 1
8 13
35 8
7 5
1 4
1 1
28 6
43 1
189 41
64 2
4 2
261 1
1 1
113 1
98 1
190 38
35 5
65 6
57 14
15 3
2 4
12 3
13 3
1 2
1 1
1 1
11 1
3 3
2 3
1 2
5 3
30 1
32 5
27 1
5 4
4 2
8 2
4 1
1 2
2 1
1 1
17 1
1 1
1 1
1 1
1 1
2 1
11 1
2 3
3 1
10 2
3 1
3 1
2 1
46 2
31 2
5 4
7 1
10 1
70 1
11 4
75 2
1 6
1 3
20 3
51 2
1 2
6 4
2 4
3 3
4 3
7 3
7 1
5 1
1 1
5 1
3 6
12 1
1 3
1 1
11 4
1 1
1 1
11 1
1 1
3 5
4 1
14 1
2 1
68 5
19 3
32 2
48 1
8 1
8 1
71 9
37 7
71 4
49 7
2 3
13 4
32 3
10 1
81 2
204 14
154 9
10 13
3 6
5 11
1 4
1 6
1 1
7 13
2 2
1 13
1 1
1 1
2 1
5 5
4 1
2 3
2 3
16 6
3 3
12 3
5 3
2 2
4 1
1 1
1 2
1 1
1 1
1 1
6 2
1 1
1 1
4 3
35 1
52 3
68 6
11 1
6 1
26 1
76 3
4 3
6 1
6 1
4 1
2 1
7 1
133 6
4 4
1 4
1 1
1 1
1 1
1 1
225 38
65 7
45 1
76 1
187 3
41 4
94 1
97 1
88 1
350 3
21 4
3 2
3 1
2 3
1 2
1 1
3 1
1 1
3 1
7 2
177 2
150 17
136 1
1 1
157 1
232 9
45 4
6 7
4 1
4 1
7 2
3 5
3 1
44 9
1 2
2 1
10 1
37 2
13 2
3 1
1 1
1 1
7 1
14 1
4 1
12 2
36 2
5 2
2 2
2 3
2 2
1 1
36 2
5 3
2 2
2 1
11 2
32 1
25 1
3 1
13 1
1 1
1 1
17 3
19 2
4 1
1 1
5 1
2 1
33 2
6 2
4 1
1 1
253 53
316 4
164 18
97 4
65 5
40 7
47 7
8 6
8 2
2 1
1 1
1 1
2 1
1 1
1 1
18 3
18 2
65 9
2 2
16 4
13 5
4 1
3 2
2 1
2 1
4 1
1 1
18 2
4 2
11 3
4 1
32 1
2 4
1 1
1 1
1 2
2 2
1 2
1 1
1 1
1 1
1 1
4 3
9 3
27 1
21 3
13 4
44 4
38 2
3 3
3 3
1 2
3 1
1 1
4 1
1 2
2 1
1 1
5 1
5 1
2 2
2 1
41 4
6 5
1 1
1 1
1 1
14 5
36 5
23 1
5 2
19 1
20 2
56 1
4 1
17 1
1 2
1 1
8 1
20 1
82 1
2 4
4 2
3 3
1 1
4 1
5 2
1 2
1 2
1 1
6 1
1 1
5 1
5 2
3 2
50 4
36 2
3 2
83 2
2 1
3 1
2 1
2 1
4 1
1 1
1 1
1 1
6 1
169 12
332 3
58 4
31 5
3 4
4 7
1 7
2 1
1 1
2 1
2 1
1 2
1 2
2 1
3 9
5 3
3 2
1 1
1 2
2 2
3 1
1 4
1 3
1 1
1 2
1 1
1 1
1 1
8 8
7 5
1 2
1 1
3 1
3 2
5 1
2 1
1 1
5 1
29 6
7 1
1 6
3 1
1 1
2 2
1 4
1 4
1 1
1 1
2 5
1 5
1 2
1 3
2 1
1 2
1 2
1 1
1 1
10 8
3 1
4 1
4 1
1 2
1 1
3 1
1 1
1 1
1 2
405 7
19 4
3 4
2 2
1 2
5 2
1 2
252 2
2 1
98 2
30 5
46 1
1 1
1 1
24 1
61 4
6 3
6 1
14 1
2 1
1 1
83 5
52 5
4 2
126 2
71 2
172 3
165 12
83 3
7 3
4 4
3 6
1 3
1 1
1 1
1 4
1 2
1 1
1 3
1 1
1 1
1 1
1 4
1 4
1 1
1 1
1 1
1 1
2 3
1 1
1 2
2 3
1 2
1 4
1 3
1 1
1 1
1 1
1 1
1 1
1 1
1 1
65 1
15 7
14 2
6 1
7 2
1 1
8 1
14 2
24 11
236 8
15 6
7 1
1 1
7 1
7 1
1 1
3 1
181 1
71 1
7 3
2 2
33 3
18 2
47 1
31 1
42 1
216 1
14 1
21 4
1 3
4 2
7 1
1 1
1 1
1 1
6 1
1 1
1 1
32 2
1 1
2 4
2 1
1 1
8 1
1 1
1 2
5 4
3 2
4 1
1 1
1 1
2 1
2 1
11 2
9 1
2 1
39 5
199 11
230 6
1 5
1 4
2 2
207 8
8 1
5 1
19 1
22 2
177 1
13 2
17 1
10 1
5 1
1 1
34 6
153 5
2 11
67 1
60 7
77 2
22 1
9 1
6 3
1 2
9 3
3 3
4 1
3 1
1 1
2 1
2 2
13 2
1 1
6 1
3 1
2 1
6 1
5 1
1 1
30 2
3 1
2 2
3 1
1 1
3 1
2 1
38 1
136 4
1 3
112 3
103 4
25 2
28 4
1 1
4 1
12 2
1 3
1 1
1 1
4 1
4 3
4 3
2 2
2 1
1 1
1 1
1 1
6 1
7 2
2 1
1 3
1 1
3 1
18 4
9 2
15 7
14 2
5 3
4 2
1 1
40 4
7 2
4 1
21 2
17 1
4 1
7 1
3 1
14 1
16 1
4 1
6 1
7 1
4 1
26 1
1 1
1 1
44 3
21 1
41 1
6 1
25 1
48 1
9 1
8 5
14 1
5 1
5 1
1 2
4 3
1 1
3 1
10 3
1 1
9 1
3 4
9 1
5 2
1 2
1 5
2 1
2 2
8 2
4 2
3 1
2 1
1 1
2 1
1 1
2 1
1 2
3 2
4 1
6 1
4 4
2 1
6 3
10 3
183 1
149 9
32 1
9 1
16 1
8 1
87 1
107 6
256 3
12 4
7 2
12 1
2 1
1 1
3 3
3 2
2 1
1 1
3 1
8 2
6 1
3 1
1 1
1 1
4 1
10 1
22 1
5 1
3 1
7 1
347 2
13 2
15 2
156 3
154 6
84 4
163 3
36 1
47 1
97 1
5 1
5 1
264 1
47 1
49 1
13 1
7 1
887 16
111 2
1 13
1 2
1 1
1 3
16 11
34 10
22 13
39 8
1 10
1 5
1 1
1 2
1 4
1 2
1 3
1 2
2 4
35 3
3 1
1 1
2 2
1 1
1 1
1 1
1 1
2 1
1 1
1 1
1 1
51 5
10 1
2 1
40 1
1 1
26 3
6 2
22 2
50 1
4 1
6 1
24 2
8 1
3 1
2 1
1 1
2 1
1 1
3 1
1 1
32 1
1 1
43 1
7 1
32 1
814 12
75 9
110 15
1 14
1 3
1 1
1 2
22 6
35 2
53 2
1 1
23 1
28 1
2 1
1 1
33 1
94 3
2 3
2 1
3 1
8 1
1 1
1 2
1 2
2 2
8 2
6 1
6 2
1 1
7 1
34 4
29 6
43 2
52 2
